c turning on binary mode checking
c parsing input formula with 259840 variables and 1039934 clauses
c finished parsing, read 3193175 bytes from proof file
c detected empty clause; start verification via backward checking
c 2261 of 1039934 clauses in core                            
c 805 of 124263 lemmas in core using 18773 resolution steps
c 0 RAT lemmas in core; 36 redundant literals in core lemmas
s VERIFIED
c verification time: 1.236 seconds
